30
1 0 168
2 0 298
2 1 184
3 0 151
3 1 172
3 2 123
4 0 100
4 1 47
5 1 279
5 3 240
5 4 231
6 0 44
6 1 175
6 2 257
6 3 77
6 4 152
6 5 102
7 0 208
7 1 86
7 3 199
7 4 222
7 5 202
7 6 287
8 0 40
8 1 231
8 2 238
8 3 191
8 5 158
8 7 87
9 0 212
9 1 168
9 2 50
9 3 217
9 4 52
9 6 89
9 7 301
10 0 40
10 1 113
10 2 265
10 5 33
10 6 189
10 7 50
10 8 248
10 9 6
11 0 3
11 1 265
11 2 21
11 3 202
11 4 16
11 5 28
11 6 303
11 7 122
11 8 94
12 0 158
12 1 153
12 2 288
12 3 140
12 4 184
12 5 137
12 6 317
12 7 80
12 8 184
12 9 146
12 10 56
12 11 183
13 0 281
13 1 138
13 3 188
13 4 117
13 5 218
13 6 225
13 7 231
13 8 5
13 9 304
13 10 101
13 12 266
14 0 66
14 1 87
14 2 74
14 3 318
14 4 153
14 5 59
14 6 190
14 7 22
14 8 69
14 9 11
14 10 188
14 11 219
14 13 125
15 0 88
15 1 160
15 3 193
15 4 101
15 5 301
15 7 55
15 8 150
15 9 294
15 10 123
15 12 293
15 13 254
15 14 51
16 0 242
16 1 86
16 2 312
16 3 33
16 4 3
16 7 259
16 8 136
16 9 7
16 10 32
16 12 251
16 13 139
16 14 177
16 15 181
17 0 68
17 1 10
17 2 215
17 4 201
17 5 6
17 7 207
17 8 86
17 9 51
17 10 166
17 11 272
17 13 286
17 15 225
18 0 23
18 1 72
18 2 271
18 3 254
18 4 15
18 5 151
18 6 225
18 7 7
18 8 114
18 9 299
18 11 120
18 12 63
18 13 276
18 14 165
18 15 122
18 16 285
19 1 128
19 2 189
19 3 88
19 4 25
19 5 282
19 6 243
19 7 231
19 8 139
19 9 317
19 10 133
19 11 99
19 14 294
19 15 268
19 16 34
19 17 207
19 18 163
20 0 103
20 1 242
20 3 256
20 4 281
20 5 95
20 6 230
20 7 300
20 8 107
20 10 231
20 12 138
20 13 294
20 15 125
20 16 88
20 19 194
21 0 278
21 1 83
21 3 45
21 4 163
21 5 4
21 6 293
21 7 266
21 8 117
21 9 217
21 10 164
21 11 187
21 14 184
21 15 14
21 18 228
21 19 273
21 20 91
22 0 318
22 3 10
22 4 201
22 5 83
22 6 36
22 7 225
22 8 209
22 9 67
22 10 275
22 12 133
22 13 137
22 14 293
22 15 15
22 16 240
22 17 128
22 18 102
22 19 296
22 20 29
22 21 104
23 0 153
23 2 204
23 3 216
23 4 188
23 7 255
23 8 1
23 9 204
23 10 225
23 13 101
23 14 22
23 15 214
23 17 299
23 18 3
23 19 187
23 20 55
23 22 46
24 1 237
24 2 191
24 4 243
24 5 118
24 6 293
24 9 184
24 10 159
24 11 64
24 12 68
24 13 207
24 14 248
24 15 23
24 16 24
24 17 101
24 18 135
24 19 94
24 20 15
24 23 138
25 0 245
25 1 314
25 2 76
25 3 62
25 4 204
25 5 113
25 7 64
25 8 228
25 9 166
25 10 30
25 11 5
25 12 248
25 13 34
25 14 147
25 15 106
25 16 207
25 17 190
25 19 298
25 20 69
25 21 200
25 22 78
25 23 101
25 24 268
26 0 272
26 1 65
26 2 162
26 4 238
26 5 32
26 6 205
26 8 5
26 9 252
26 10 306
26 11 88
26 12 295
26 14 297
26 15 256
26 16 302
26 17 280
26 18 48
26 19 241
26 20 305
26 21 261
26 22 224
26 23 311
26 24 320
26 25 185
27 0 226
27 1 232
27 2 158
27 6 203
27 7 305
27 9 193
27 10 154
27 11 113
27 12 195
27 13 275
27 14 123
27 15 94
27 16 160
27 18 70
27 20 78
27 21 223
27 22 45
27 25 192
27 26 65
28 1 291
28 2 81
28 3 89
28 4 282
28 6 140
28 7 262
28 9 56
28 10 311
28 11 237
28 12 138
28 13 109
28 14 116
28 15 111
28 16 8
28 17 110
28 19 292
28 22 220
28 23 136
28 24 319
28 25 165
28 26 20
28 27 164
29 2 175
29 3 195
29 4 275
29 5 43
29 6 63
29 8 83
29 9 111
29 10 220
29 11 237
29 12 194
29 14 103
29 16 81
29 17 287
29 20 215
29 21 131
29 22 87
29 23 186
29 24 246
29 25 320
29 26 149
29 27 317
29 28 109
